p edge 50 578
e 1 4
e 1 5
e 1 8
e 1 9
e 1 10
e 1 11
e 1 13
e 1 14
e 1 15
e 1 16
e 1 18
e 1 19
e 1 20
e 1 22
e 1 24
e 1 25
e 1 27
e 1 30
e 1 31
e 1 32
e 1 34
e 1 36
e 1 37
e 1 38
e 1 41
e 1 45
e 1 46
e 1 49
e 2 3
e 2 4
e 2 5
e 2 9
e 2 11
e 2 13
e 2 14
e 2 15
e 2 16
e 2 17
e 2 18
e 2 19
e 2 20
e 2 21
e 2 22
e 2 24
e 2 25
e 2 27
e 2 29
e 2 32
e 2 35
e 2 38
e 2 39
e 2 40
e 2 41
e 2 42
e 2 45
e 2 48
e 2 49
e 3 7
e 3 9
e 3 11
e 3 12
e 3 14
e 3 15
e 3 16
e 3 17
e 3 18
e 3 19
e 3 21
e 3 25
e 3 26
e 3 27
e 3 28
e 3 29
e 3 31
e 3 36
e 3 37
e 3 39
e 3 40
e 3 41
e 3 44
e 3 46
e 3 48
e 4 5
e 4 9
e 4 10
e 4 11
e 4 13
e 4 14
e 4 17
e 4 18
e 4 21
e 4 23
e 4 24
e 4 26
e 4 28
e 4 33
e 4 36
e 4 41
e 4 44
e 4 46
e 4 49
e 5 7
e 5 9
e 5 13
e 5 14
e 5 15
e 5 16
e 5 17
e 5 21
e 5 23
e 5 24
e 5 25
e 5 26
e 5 27
e 5 28
e 5 29
e 5 30
e 5 32
e 5 33
e 5 34
e 5 36
e 5 37
e 5 40
e 5 41
e 5 43
e 5 44
e 5 48
e 5 49
e 5 50
e 6 7
e 6 10
e 6 13
e 6 14
e 6 16
e 6 17
e 6 20
e 6 21
e 6 27
e 6 29
e 6 30
e 6 31
e 6 32
e 6 33
e 6 34
e 6 36
e 6 37
e 6 38
e 6 41
e 6 43
e 6 45
e 6 46
e 6 47
e 6 48
e 7 8
e 7 9
e 7 10
e 7 11
e 7 15
e 7 16
e 7 18
e 7 21
e 7 22
e 7 25
e 7 26
e 7 31
e 7 35
e 7 37
e 7 38
e 7 43
e 7 44
e 7 45
e 7 47
e 7 48
e 8 10
e 8 11
e 8 13
e 8 16
e 8 17
e 8 19
e 8 20
e 8 23
e 8 25
e 8 29
e 8 32
e 8 33
e 8 35
e 8 37
e 8 38
e 8 39
e 8 40
e 8 43
e 8 46
e 8 48
e 8 50
e 9 10
e 9 15
e 9 18
e 9 20
e 9 22
e 9 27
e 9 28
e 9 29
e 9 31
e 9 32
e 9 33
e 9 34
e 9 35
e 9 38
e 9 40
e 9 44
e 9 45
e 9 46
e 9 47
e 9 49
e 10 11
e 10 15
e 10 16
e 10 17
e 10 24
e 10 25
e 10 26
e 10 28
e 10 29
e 10 33
e 10 34
e 10 37
e 10 39
e 10 42
e 10 43
e 10 45
e 10 47
e 10 50
e 11 12
e 11 13
e 11 17
e 11 20
e 11 22
e 11 25
e 11 26
e 11 27
e 11 30
e 11 31
e 11 33
e 11 34
e 11 35
e 11 39
e 11 45
e 11 46
e 11 47
e 11 48
e 11 49
e 11 50
e 12 14
e 12 18
e 12 21
e 12 22
e 12 23
e 12 25
e 12 27
e 12 28
e 12 31
e 12 32
e 12 35
e 12 36
e 12 37
e 12 38
e 12 40
e 12 42
e 12 49
e 12 50
e 13 14
e 13 15
e 13 21
e 13 27
e 13 28
e 13 29
e 13 30
e 13 31
e 13 33
e 13 34
e 13 38
e 13 39
e 13 42
e 13 43
e 13 48
e 13 50
e 14 15
e 14 16
e 14 21
e 14 24
e 14 26
e 14 30
e 14 31
e 14 32
e 14 39
e 14 43
e 14 45
e 14 46
e 14 48
e 15 18
e 15 20
e 15 21
e 15 23
e 15 26
e 15 27
e 15 28
e 15 30
e 15 31
e 15 32
e 15 36
e 15 39
e 15 41
e 15 42
e 15 43
e 15 44
e 15 46
e 15 48
e 15 49
e 16 18
e 16 22
e 16 23
e 16 24
e 16 25
e 16 26
e 16 27
e 16 28
e 16 30
e 16 32
e 16 33
e 16 34
e 16 44
e 16 45
e 16 46
e 16 47
e 16 49
e 17 19
e 17 20
e 17 22
e 17 23
e 17 25
e 17 28
e 17 29
e 17 30
e 17 37
e 17 38
e 17 41
e 17 42
e 17 43
e 17 44
e 17 45
e 17 47
e 18 22
e 18 23
e 18 24
e 18 26
e 18 27
e 18 28
e 18 29
e 18 31
e 18 32
e 18 33
e 18 36
e 18 37
e 18 39
e 18 42
e 18 44
e 18 45
e 18 48
e 19 21
e 19 24
e 19 25
e 19 27
e 19 30
e 19 31
e 19 32
e 19 33
e 19 35
e 19 36
e 19 37
e 19 40
e 19 41
e 19 44
e 19 45
e 19 47
e 19 48
e 19 49
e 19 50
e 20 22
e 20 23
e 20 25
e 20 26
e 20 31
e 20 35
e 20 36
e 20 37
e 20 39
e 20 40
e 20 44
e 20 45
e 21 22
e 21 24
e 21 30
e 21 34
e 21 36
e 21 37
e 21 42
e 21 43
e 21 48
e 22 24
e 22 27
e 22 28
e 22 29
e 22 31
e 22 32
e 22 35
e 22 37
e 22 38
e 22 39
e 22 41
e 22 42
e 22 44
e 23 24
e 23 26
e 23 30
e 23 33
e 23 35
e 23 40
e 23 42
e 23 43
e 23 46
e 23 50
e 24 25
e 24 26
e 24 27
e 24 28
e 24 29
e 24 30
e 24 31
e 24 32
e 24 33
e 24 35
e 24 36
e 24 40
e 24 41
e 24 46
e 24 47
e 24 50
e 25 26
e 25 27
e 25 29
e 25 30
e 25 35
e 25 39
e 25 40
e 25 44
e 25 48
e 25 49
e 26 28
e 26 31
e 26 32
e 26 33
e 26 37
e 26 38
e 26 41
e 26 43
e 26 46
e 27 28
e 27 30
e 27 32
e 27 33
e 27 46
e 27 50
e 28 31
e 28 33
e 28 35
e 28 36
e 28 43
e 28 44
e 28 46
e 28 47
e 28 49
e 29 30
e 29 33
e 29 34
e 29 37
e 29 38
e 29 39
e 29 41
e 29 42
e 29 44
e 29 49
e 30 33
e 30 36
e 30 38
e 30 45
e 31 35
e 31 36
e 31 38
e 31 39
e 31 40
e 31 42
e 31 43
e 31 44
e 31 45
e 32 36
e 32 38
e 32 40
e 32 41
e 32 42
e 32 46
e 32 50
e 33 34
e 33 39
e 33 40
e 33 42
e 33 43
e 33 45
e 33 46
e 33 49
e 34 38
e 34 41
e 34 42
e 34 43
e 34 44
e 34 45
e 34 46
e 34 49
e 35 36
e 35 40
e 35 44
e 35 45
e 35 46
e 35 49
e 36 37
e 36 38
e 36 39
e 36 41
e 36 48
e 36 50
e 37 38
e 37 40
e 37 41
e 37 43
e 37 45
e 37 47
e 37 48
e 37 50
e 38 42
e 38 43
e 38 46
e 38 49
e 38 50
e 39 42
e 39 43
e 39 46
e 39 47
e 39 48
e 39 49
e 39 50
e 40 41
e 40 45
e 40 46
e 40 47
e 40 48
e 41 44
e 41 46
e 41 49
e 41 50
e 42 48
e 42 49
e 42 50
e 43 44
e 43 45
e 43 48
e 44 45
e 45 48
e 46 47
e 47 48
